c Lingeling SAT Solver
c 
c Version azf 92032848c138b2f33629ad24394d60a3787a1046
c 
c Copyright (C) 2010-2014 Armin Biere JKU Linz Austria.
c All rights reserved.
c 
c released Don Mai 22 22:08:00 CEST 2014
c compiled Mon Oct  6 05:55:43 PDT 2014
c 
c gcc (Ubuntu 4.8.2-19ubuntu1) 4.8.2
c -Wall -O3 -DNDBLSCR -DNLGLOG -DNDEBUG -DNCHKSOL -DNLGLPICOSAT -DNLGLDRUPLIG
c -DNLGLYALSAT
c Linux ubuntu 3.13.0-32-generic x86_64
c 
c reading input file benchmark-sat/translations/gc-DSJR500.1c-63.cnf
c no embedded options
c found 'p cnf 31500 8617325' header
c read 31500 variables, 8617325 clauses, 17265150 literals in 0.00 seconds
c 
c  seconds         irredundant          redundant clauses agility   height
c          variables clauses conflicts large ternary binary    glue         MB
c 
c S    0.0   31500  8617325         0       0      0     0   0  0.0   0.0  259
c S    1.5   31500  8617325         0       0      0     0   0  0.0   0.0  126
c P    3.1   31500  8617325         0       0      0     0   0  0.0   0.0  128
c P    5.0   31500  8617325         0       0      0     0   0  0.0   0.0  127
c S   10.0   31500  8617325     12128    5897      0     0   0 85.1 870.2  261
c P   20.0   31500  8617325     40000    9772      0     0   1 83.8 878.4  259
c S   30.0   31500  8246310     58215    7329      0 371015   1 89.1 882.3  267
c P   40.6   31500  8246310     88001   10450      0 371015   1 89.4 880.9  265
c S   50.1   31500  8209448     88001   10450      0 407877   0 89.4 880.9  265
c S   60.0   31500  8209448    131337   18246      0 407877   0 88.4 883.7  287
c S  120.0   31500  8209448    327047   29211      0 407877   1 103.8 893.6  303
c S  180.0   31500  8209448    479858   36278      0 407877   1 110.2 892.7  325
c S  240.0   31500  8209448    687387   34315      0 407877   0 102.3 892.0  310
c S  300.0   31430  8089232    809716   26926      0 523683   0 104.7 888.1  311
c S  600.0   31430  7665834   1544023   65267      0 947081   0 119.4 877.7  453
c S  900.0   31274  7640599   2156839   58786      0 962488   1 119.7 871.9  384
